\ENCODING=ISO-8859-1
\Problem name: TSP

Minimize
 obj1: 12.9024879635896 x1 + 14.7599729452818 x2 + 2.12190591604658 x3
       + 5.04894564887564 x4 + 4.61534222413386 x5 + 17.4817973310252 x6
       + 5.65164696840093 x7 + 6.02313770751767 x8 + 12.2641774905924 x9
       + 14.0668835403178 x10 + 5.30591367627795 x11 + 5.80900618344046 x12
       + 10.2100917629576 x13 + 7.94713858983391 x14 + 4.38984903690118 x15
       + 7.21951277567671 x16 + 6.0102728452629 x17 + 4.62460574581309 x18
       + 3.84179606189654 x19 + 14.5737531704955 x20 + 2.74863471674797 x21
       + 14.7969020049362 x22 + 11.223529960884 x23 + 13.5662701687011 x24
       + 6.44992581711154 x25 + 14.5135245925507 x26 + 13.6751900817152 x27
       + 16.5402654897162 x28 + 2.31173619305487 x29 + 7.6676391311454 x30
       + 16.3119621534704 x31 + 9.00772320574302 x32 + 8.88832168830938 x33
       + 16.8744329229773 x34 + 11.9144914812748 x35 + 11.5241204077327 x36
       + 11.996415674849 x37 + 14.9110912778587 x38 + 3.82155380859556 x39
       + 16.7650641532683 x40 + 12.2411996741308 x41 + 14.6627544429347 x42
       + 3.70511005452687 x43 + 15.4690955128954 x44 + 14.5059262308369 x45
       + 16.332572695602 x46 + 4.29615178171919 x47 + 9.75581026291882 x48
       + 17.4234860980906 x49 + 11.7563557456318 x50 + 11.5700630378894 x51
       + 18.9309951894873 x52 + 14.5495928174751 x53 + 12.3207969973844 x54
       + 13.0739369214411 x55 + 16.2488175641453 x56 + 1.54091428798454 x57
       + 6.95775759394927 x58 + 5.98165017525432 x59 + 19.566145097443 x60
       + 6.79740635187068 x61 + 7.4370018813012 x62 + 13.6385075826422 x63
       + 15.8066806802663 x64 + 7.13179765915273 x65 + 6.27968954779936 x66
       + 11.0252654694411 x67 + 8.85031338979952 x68 + 2.26798355525883 x69
       + 7.36224590021181 x70 + 7.85260992761454 x71 + 6.40457849244523 x72
       + 4.52681350966648 x73 + 16.6371505925893 x74 + 2.42691675121909 x75
       + 14.1516571354592 x76 + 3.28999545618313 x77 + 2.54541214280284 x78
       + 7.84504739337181 x79 + 13.0502980638812 x80 + 5.70284252057763 x81
       + 5.18256401993 x82 + 12.4052230880051 x83 + 10.283198701695 x84
       + 9.10836768347262 x85 + 10.9413193687152 x86 + 1.02472642478435 x87
       + 0.856215308952256 x88 + 4.23817986973406 x89 + 11.5814567067664 x90
       + 16.5490302024654 x91 + 1.19170930195765 x92 + 1.45550336016727 x93
       + 7.69019823159657 x94 + 15.3081828588785 x95 + 7.35401044625405 x96
       + 2.76396517834211 x97 + 13.7418510660094 x98 + 11.512008654403 x99
       + 7.83363472205026 x100 + 11.5444660066313 x101 + 2.66879303127931 x102
       + 1.58964579915823 x103 + 2.06572416781276 x104 + 14.0064096762724 x105
       + 17.1608981271179 x106 + 16.0904966494944 x107 + 16.5240908442116 x108
       + 7.81333080031244 x109 + 12.8493752074606 x110 + 19.2345575666146 x111
       + 15.4548623959324 x112 + 15.1784523771756 x113 + 21.7988287225351 x114
       + 18.0948687767021 x115 + 13.9783900922189 x116 + 15.0078720909376 x117
       + 18.3570085605119 x118 + 3.02554024604481 x119 + 1.1422018576171 x120
       + 6.86317402132249 x121 + 16.3225277300305 x122 + 8.51998126572726 x123
       + 2.11917396416984 x124 + 14.9335404665247 x125 + 12.7032830512742 x126
       + 8.46208454153524 x127 + 12.6883553879224 x128 + 3.18940778479915 x129
       + 2.55213766253773 x130 + 2.41124313146459 x131 + 14.7274039545022 x132
       + 6.24862259583629 x133 + 15.5596688896709 x134 + 8.12386403137827 x135
       + 3.25561104497041 x136 + 14.7150691151584 x137 + 12.5277545419391 x138
       + 9.2627355637266 x139 + 12.7920573846858 x140 + 2.18578767046079 x141
       + 2.01481607313673 x142 + 3.32930430201178 x143 + 13.7121154661999 x144
       + 18.7648943230499 x145 + 13.3075927429792 x146 + 8.11964833822044 x147
       + 20.0568209322466 x148 + 18.0280978672245 x149 + 15.3100032730988 x150
       + 18.7736412620558 x151 + 6.85871764508648 x152 + 7.84926087483357 x153
       + 9.25052042011369 x154 + 15.0790882827895 x155 + 8.76310934244292 x156
       + 18.009464157018 x157 + 8.25927025740647 x158 + 8.72849310024222 x159
       + 17.7489380668441 x160 + 11.831825125296 x161 + 13.4561820858869 x162
       + 13.7753221209581 x163 + 16.4772800893851 x164 + 5.70689220719769 x165
       + 9.78384828137502 x166 + 6.7529416576411 x167 + 4.76103841590495 x168
       + 9.21787737386092 x169 + 6.34305127381187 x170 + 6.55424600253694 x171
       + 6.11084086877898 x172 + 8.02142964040551 x173 + 9.83705808597411 x174
       + 15.79526021186 x175 + 13.5270779903662 x176 + 7.46310934759002 x177
       + 13.0269802236413 x178 + 5.25899032302129 x179 + 4.35336107535521 x180
       + 1.97144415622405 x181 + 16.7444134889753 x182 + 2.27144083090478 x183
       + 12.232498910227 x184 + 4.40631072567464 x185 + 13.2944262524134 x186
       + 12.7114214998017 x187 + 13.8559216948019 x188 + 12.6733870764874 x189
       + 10.2080953313327 x190 + 3.10334400021777 x191 + 11.207034863857 x192
       + 10.5374135370162 x193 + 11.5853723876166 x194 + 12.2409257315998 x195
       + 8.13036313101375 x196 + 9.95234858918848 x197 + 8.48950982156218 x198
       + 6.06006362056299 x199 + 18.8531378281662 x200 + 11.9506166403966 x201
       + 10.9534360086271 x202 + 11.0612927368932 x203 + 15.1115023521041 x204
       + 1.46396701217251 x205 + 4.68736573214206 x206 + 11.5438800574891 x207
       + 3.39259691188836 x208 + 12.4313799775339 x209 + 15.7095540814079 x210
Subject To
 c1:  x1 + x2 + x3 + x4 + x5 + x6 + x7 + x8 + x9 + x10 + x11 + x12 + x13 + x14
      + x15 + x16 + x17 + x18 + x19 + x20  = 2
 c2:  x1 + x21 + x22 + x23 + x24 + x25 + x26 + x27 + x28 + x29 + x30 + x31
      + x32 + x33 + x34 + x35 + x36 + x37 + x38 + x39  = 2
 c3:  x2 + x21 + x40 + x41 + x42 + x43 + x44 + x45 + x46 + x47 + x48 + x49
      + x50 + x51 + x52 + x53 + x54 + x55 + x56 + x57  = 2
 c4:  x3 + x22 + x40 + x58 + x59 + x60 + x61 + x62 + x63 + x64 + x65 + x66
      + x67 + x68 + x69 + x70 + x71 + x72 + x73 + x74  = 2
 c5:  x4 + x23 + x41 + x58 + x75 + x76 + x77 + x78 + x79 + x80 + x81 + x82
      + x83 + x84 + x85 + x86 + x87 + x88 + x89 + x90  = 2
 c6:  x5 + x24 + x42 + x59 + x75 + x91 + x92 + x93 + x94 + x95 + x96 + x97
      + x98 + x99 + x100 + x101 + x102 + x103 + x104 + x105  = 2
 c7:  x6 + x25 + x43 + x60 + x76 + x91 + x106 + x107 + x108 + x109 + x110
      + x111 + x112 + x113 + x114 + x115 + x116 + x117 + x118 + x119  = 2
 c8:  x7 + x26 + x44 + x61 + x77 + x92 + x106 + x120 + x121 + x122 + x123
      + x124 + x125 + x126 + x127 + x128 + x129 + x130 + x131 + x132  = 2
 c9:  x8 + x27 + x45 + x62 + x78 + x93 + x107 + x120 + x133 + x134 + x135
      + x136 + x137 + x138 + x139 + x140 + x141 + x142 + x143 + x144  = 2
 c10: x9 + x28 + x46 + x63 + x79 + x94 + x108 + x121 + x133 + x145 + x146
      + x147 + x148 + x149 + x150 + x151 + x152 + x153 + x154 + x155  = 2
 c11: x10 + x29 + x47 + x64 + x80 + x95 + x109 + x122 + x134 + x145 + x156
      + x157 + x158 + x159 + x160 + x161 + x162 + x163 + x164 + x165  = 2
 c12: x11 + x30 + x48 + x65 + x81 + x96 + x110 + x123 + x135 + x146 + x156
      + x166 + x167 + x168 + x169 + x170 + x171 + x172 + x173 + x174  = 2
 c13: x12 + x31 + x49 + x66 + x82 + x97 + x111 + x124 + x136 + x147 + x157
      + x166 + x175 + x176 + x177 + x178 + x179 + x180 + x181 + x182  = 2
 c14: x13 + x32 + x50 + x67 + x83 + x98 + x112 + x125 + x137 + x148 + x158
      + x167 + x175 + x183 + x184 + x185 + x186 + x187 + x188 + x189  = 2
 c15: x14 + x33 + x51 + x68 + x84 + x99 + x113 + x126 + x138 + x149 + x159
      + x168 + x176 + x183 + x190 + x191 + x192 + x193 + x194 + x195  = 2
 c16: x15 + x34 + x52 + x69 + x85 + x100 + x114 + x127 + x139 + x150 + x160
      + x169 + x177 + x184 + x190 + x196 + x197 + x198 + x199 + x200  = 2
 c17: x16 + x35 + x53 + x70 + x86 + x101 + x115 + x128 + x140 + x151 + x161
      + x170 + x178 + x185 + x191 + x196 + x201 + x202 + x203 + x204  = 2
 c18: x17 + x36 + x54 + x71 + x87 + x102 + x116 + x129 + x141 + x152 + x162
      + x171 + x179 + x186 + x192 + x197 + x201 + x205 + x206 + x207  = 2
 c19: x18 + x37 + x55 + x72 + x88 + x103 + x117 + x130 + x142 + x153 + x163
      + x172 + x180 + x187 + x193 + x198 + x202 + x205 + x208 + x209  = 2
 c20: x19 + x38 + x56 + x73 + x89 + x104 + x118 + x131 + x143 + x154 + x164
      + x173 + x181 + x188 + x194 + x199 + x203 + x206 + x208 + x210  = 2
 c21: x20 + x39 + x57 + x74 + x90 + x105 + x119 + x132 + x144 + x155 + x165
      + x174 + x182 + x189 + x195 + x200 + x204 + x207 + x209 + x210  = 2
 c22: x3 + x15 + x69 <= 2
 c23: x21 + x25 + x29 + x39 + x43 + x47 + x57 + x109 + x119 + x165 <= 4
 c24: x75 + x77 + x78 + x79 + x82 + x87 + x88 + x89 + x92 + x93 + x94 + x97
      + x102 + x103 + x104 + x120 + x121 + x124 + x129 + x130 + x131 + x133
      + x136 + x141 + x142 + x143 + x147 + x152 + x153 + x154 + x179 + x180
      + x181 + x205 + x206 + x208 <= 8
 c25: x167 + x168 + x170 + x183 + x185 + x191 <= 3
 c26: x3 + x12 + x15 + x19 + x66 + x69 + x73 + x177 + x181 + x199 <= 4
 c27: x29 + x30 + x156 <= 2
 c28: x43 + x57 + x119 <= 2
 c29: x75 + x77 + x78 + x79 + x87 + x88 + x92 + x93 + x94 + x102 + x103 + x120
      + x121 + x129 + x130 + x133 + x141 + x142 + x152 + x153 + x205 <= 6
 c30: x183 + x185 + x191 <= 2
 c31: x1 + x2 + x3 + x5 + x6 + x7 + x8 + x9 + x10 + x11 + x12 + x13 + x14 + x15
      + x16 + x19 + x20 + x21 + x22 + x24 + x25 + x26 + x27 + x28 + x29 + x30
      + x31 + x32 + x33 + x34 + x35 + x38 + x39 + x40 + x42 + x43 + x44 + x45
      + x46 + x47 + x48 + x49 + x50 + x51 + x52 + x53 + x56 + x57 + x59 + x60
      + x61 + x62 + x63 + x64 + x65 + x66 + x67 + x68 + x69 + x70 + x73 + x74
      + x91 + x92 + x93 + x94 + x95 + x96 + x97 + x98 + x99 + x100 + x101
      + x104 + x105 + x106 + x107 + x108 + x109 + x110 + x111 + x112 + x113
      + x114 + x115 + x118 + x119 + x120 + x121 + x122 + x123 + x124 + x125
      + x126 + x127 + x128 + x131 + x132 + x133 + x134 + x135 + x136 + x137
      + x138 + x139 + x140 + x143 + x144 + x145 + x146 + x147 + x148 + x149
      + x150 + x151 + x154 + x155 + x156 + x157 + x158 + x159 + x160 + x161
      + x164 + x165 + x166 + x167 + x168 + x169 + x170 + x173 + x174 + x175
      + x176 + x177 + x178 + x181 + x182 + x183 + x184 + x185 + x188 + x189
      + x190 + x191 + x194 + x195 + x196 + x199 + x200 + x203 + x204 + x210
      <= 17
 c32: x87 + x88 + x205 <= 2
 c33: x3 + x4 + x5 + x7 + x8 + x9 + x12 + x15 + x17 + x18 + x19 + x58 + x59
      + x61 + x62 + x63 + x66 + x69 + x71 + x72 + x73 + x75 + x77 + x78 + x79
      + x82 + x85 + x87 + x88 + x89 + x92 + x93 + x94 + x97 + x100 + x102
      + x103 + x104 + x120 + x121 + x124 + x127 + x129 + x130 + x131 + x133
      + x136 + x139 + x141 + x142 + x143 + x147 + x150 + x152 + x153 + x154
      + x177 + x179 + x180 + x181 + x197 + x198 + x199 + x205 + x206 + x208
      <= 11
 c34: x21 + x25 + x29 + x30 + x32 + x33 + x35 + x39 + x43 + x47 + x48 + x50
      + x51 + x53 + x57 + x109 + x110 + x112 + x113 + x115 + x119 + x156 + x158
      + x159 + x161 + x165 + x167 + x168 + x170 + x174 + x183 + x185 + x189
      + x191 + x195 + x204 <= 8
Bounds
 0 <= x1 <= 1
 0 <= x2 <= 1
 0 <= x3 <= 1
 0 <= x4 <= 1
 0 <= x5 <= 1
 0 <= x6 <= 1
 0 <= x7 <= 1
 0 <= x8 <= 1
 0 <= x9 <= 1
 0 <= x10 <= 1
 0 <= x11 <= 1
 0 <= x12 <= 1
 0 <= x13 <= 1
 0 <= x14 <= 1
 0 <= x15 <= 1
 0 <= x16 <= 1
 0 <= x17 <= 1
 0 <= x18 <= 1
 0 <= x19 <= 1
 0 <= x20 <= 1
 0 <= x21 <= 1
 0 <= x22 <= 1
 0 <= x23 <= 1
 0 <= x24 <= 1
 0 <= x25 <= 1
 0 <= x26 <= 1
 0 <= x27 <= 1
 0 <= x28 <= 1
 0 <= x29 <= 1
 0 <= x30 <= 1
 0 <= x31 <= 1
 0 <= x32 <= 1
 0 <= x33 <= 1
 0 <= x34 <= 1
 0 <= x35 <= 1
 0 <= x36 <= 1
 0 <= x37 <= 1
 0 <= x38 <= 1
 0 <= x39 <= 1
 0 <= x40 <= 1
 0 <= x41 <= 1
 0 <= x42 <= 1
 0 <= x43 <= 1
 0 <= x44 <= 1
 0 <= x45 <= 1
 0 <= x46 <= 1
 0 <= x47 <= 1
 0 <= x48 <= 1
 0 <= x49 <= 1
 0 <= x50 <= 1
 0 <= x51 <= 1
 0 <= x52 <= 1
 0 <= x53 <= 1
 0 <= x54 <= 1
 0 <= x55 <= 1
 0 <= x56 <= 1
 0 <= x57 <= 1
 0 <= x58 <= 1
 0 <= x59 <= 1
 0 <= x60 <= 1
 0 <= x61 <= 1
 0 <= x62 <= 1
 0 <= x63 <= 1
 0 <= x64 <= 1
 0 <= x65 <= 1
 0 <= x66 <= 1
 0 <= x67 <= 1
 0 <= x68 <= 1
 0 <= x69 <= 1
 0 <= x70 <= 1
 0 <= x71 <= 1
 0 <= x72 <= 1
 0 <= x73 <= 1
 0 <= x74 <= 1
 0 <= x75 <= 1
 0 <= x76 <= 1
 0 <= x77 <= 1
 0 <= x78 <= 1
 0 <= x79 <= 1
 0 <= x80 <= 1
 0 <= x81 <= 1
 0 <= x82 <= 1
 0 <= x83 <= 1
 0 <= x84 <= 1
 0 <= x85 <= 1
 0 <= x86 <= 1
 0 <= x87 <= 1
 0 <= x88 <= 1
 0 <= x89 <= 1
 0 <= x90 <= 1
 0 <= x91 <= 1
 0 <= x92 <= 1
 0 <= x93 <= 1
 0 <= x94 <= 1
 0 <= x95 <= 1
 0 <= x96 <= 1
 0 <= x97 <= 1
 0 <= x98 <= 1
 0 <= x99 <= 1
 0 <= x100 <= 1
 0 <= x101 <= 1
 0 <= x102 <= 1
 0 <= x103 <= 1
 0 <= x104 <= 1
 0 <= x105 <= 1
 0 <= x106 <= 1
 0 <= x107 <= 1
 0 <= x108 <= 1
 0 <= x109 <= 1
 0 <= x110 <= 1
 0 <= x111 <= 1
 0 <= x112 <= 1
 0 <= x113 <= 1
 0 <= x114 <= 1
 0 <= x115 <= 1
 0 <= x116 <= 1
 0 <= x117 <= 1
 0 <= x118 <= 1
 0 <= x119 <= 1
 0 <= x120 <= 1
 0 <= x121 <= 1
 0 <= x122 <= 1
 0 <= x123 <= 1
 0 <= x124 <= 1
 0 <= x125 <= 1
 0 <= x126 <= 1
 0 <= x127 <= 1
 0 <= x128 <= 1
 0 <= x129 <= 1
 0 <= x130 <= 1
 0 <= x131 <= 1
 0 <= x132 <= 1
 0 <= x133 <= 1
 0 <= x134 <= 1
 0 <= x135 <= 1
 0 <= x136 <= 1
 0 <= x137 <= 1
 0 <= x138 <= 1
 0 <= x139 <= 1
 0 <= x140 <= 1
 0 <= x141 <= 1
 0 <= x142 <= 1
 0 <= x143 <= 1
 0 <= x144 <= 1
 0 <= x145 <= 1
 0 <= x146 <= 1
 0 <= x147 <= 1
 0 <= x148 <= 1
 0 <= x149 <= 1
 0 <= x150 <= 1
 0 <= x151 <= 1
 0 <= x152 <= 1
 0 <= x153 <= 1
 0 <= x154 <= 1
 0 <= x155 <= 1
 0 <= x156 <= 1
 0 <= x157 <= 1
 0 <= x158 <= 1
 0 <= x159 <= 1
 0 <= x160 <= 1
 0 <= x161 <= 1
 0 <= x162 <= 1
 0 <= x163 <= 1
 0 <= x164 <= 1
 0 <= x165 <= 1
 0 <= x166 <= 1
 0 <= x167 <= 1
 0 <= x168 <= 1
 0 <= x169 <= 1
 0 <= x170 <= 1
 0 <= x171 <= 1
 0 <= x172 <= 1
 0 <= x173 <= 1
 0 <= x174 <= 1
 0 <= x175 <= 1
 0 <= x176 <= 1
 0 <= x177 <= 1
 0 <= x178 <= 1
 0 <= x179 <= 1
 0 <= x180 <= 1
 0 <= x181 <= 1
 0 <= x182 <= 1
 0 <= x183 <= 1
 0 <= x184 <= 1
 0 <= x185 <= 1
 0 <= x186 <= 1
 0 <= x187 <= 1
 0 <= x188 <= 1
 0 <= x189 <= 1
 0 <= x190 <= 1
 0 <= x191 <= 1
 0 <= x192 <= 1
 0 <= x193 <= 1
 0 <= x194 <= 1
 0 <= x195 <= 1
 0 <= x196 <= 1
 0 <= x197 <= 1
 0 <= x198 <= 1
 0 <= x199 <= 1
 0 <= x200 <= 1
 0 <= x201 <= 1
 0 <= x202 <= 1
 0 <= x203 <= 1
 0 <= x204 <= 1
 0 <= x205 <= 1
 0 <= x206 <= 1
 0 <= x207 <= 1
 0 <= x208 <= 1
 0 <= x209 <= 1
 0 <= x210 <= 1
Binaries
 x1  x2  x3  x4  x5  x6  x7  x8  x9  x10  x11  x12  x13  x14  x15  x16  x17 
 x18  x19  x20  x21  x22  x23  x24  x25  x26  x27  x28  x29  x30  x31  x32 
 x33  x34  x35  x36  x37  x38  x39  x40  x41  x42  x43  x44  x45  x46  x47 
 x48  x49  x50  x51  x52  x53  x54  x55  x56  x57  x58  x59  x60  x61  x62 
 x63  x64  x65  x66  x67  x68  x69  x70  x71  x72  x73  x74  x75  x76  x77 
 x78  x79  x80  x81  x82  x83  x84  x85  x86  x87  x88  x89  x90  x91  x92 
 x93  x94  x95  x96  x97  x98  x99  x100  x101  x102  x103  x104  x105  x106 
 x107  x108  x109  x110  x111  x112  x113  x114  x115  x116  x117  x118  x119 
 x120  x121  x122  x123  x124  x125  x126  x127  x128  x129  x130  x131  x132 
 x133  x134  x135  x136  x137  x138  x139  x140  x141  x142  x143  x144  x145 
 x146  x147  x148  x149  x150  x151  x152  x153  x154  x155  x156  x157  x158 
 x159  x160  x161  x162  x163  x164  x165  x166  x167  x168  x169  x170  x171 
 x172  x173  x174  x175  x176  x177  x178  x179  x180  x181  x182  x183  x184 
 x185  x186  x187  x188  x189  x190  x191  x192  x193  x194  x195  x196  x197 
 x198  x199  x200  x201  x202  x203  x204  x205  x206  x207  x208  x209  x210 
End
